
        $ From http://www.csplib.org/Problems/prob009/data/helmut.pdf
        $ Problem number 76
        $ Sequence length : 25
        language ESSENCE' 1.0
        letting sizemaster be 308
        letting sizes be sequence(1,3,4,7,10,12,13,23,25,34,37,38,39,43,44,45,62,77,79,85,87,108,113,115,116)
        